(set-logic HORN)
(declare-fun state (Int (Array Int Int) (Array Int Int) (Array Int Int) (Array Int Int) Int Int (Array Int Int) (Array Int Int) Int Int Int Int Int Int Int Int Int Bool Bool Bool (Array Int Int) Int) Bool)
(assert (forall ((|A| Int) (|T| (Array Int Int)) (|C| (Array Int Int)) (|D| (Array Int Int)) (|E| (Array Int Int)) (|U| Int) (|G| Int) (|H| (Array Int Int)) (|I| (Array Int Int)) (|V| Int) (|K| Int) (|L| Int) (|M| Int) (|N| Int) (|O| Int) (|P| Int) (|Q| Int) (|R| Int) (|S| Bool) (|.loc.3| Bool) (|.loc.4| Bool) (|T_0| (Array Int Int)) (|T_1| Int) (|.x.73| Int) (|.x.71| (Array Int Int)) (|.x.69| Int) (|.x.67| (Array Int Int)) (|.x.63| Int) (|.x.65| (Array Int Int)) (|.loc.5| Bool) (|.loc.6| Bool) (|.x.76| Int) (|.x.75| Int) (|.x.78| Int) (|.x.80| Int) (|.x.66| (Array Int Int)) (|.x.64| (Array Int Int)) (|.x.70| (Array Int Int)) (|.x.68| Int) (|.x.72| Int) (|S_3| Bool) (|.x.74| Int) (|.x.77| Int) (|.x.79| Int) (|.xtv.1| (Array Int Int)) (|.xtv.2| Int)) (=> (and (and (not .loc.4) (not .loc.3)) (and (and (and (and (and (= D E) (not S)) (= U G)) (= V K)) (= H I)) (= T C))) (state |A| |T| |C| |D| |E| |U| |G| |H| |I| |V| |K| |L| |M| |N| |O| |P| |Q| |R| |S| |.loc.3| |.loc.4| |T_0| |T_1|))))
(assert (forall ((|A| Int) (|T| (Array Int Int)) (|C| (Array Int Int)) (|D| (Array Int Int)) (|E| (Array Int Int)) (|U| Int) (|G| Int) (|H| (Array Int Int)) (|I| (Array Int Int)) (|V| Int) (|K| Int) (|L| Int) (|M| Int) (|N| Int) (|O| Int) (|P| Int) (|Q| Int) (|R| Int) (|S| Bool) (|.loc.3| Bool) (|.loc.4| Bool) (|T_0| (Array Int Int)) (|T_1| Int) (|.x.73| Int) (|.x.71| (Array Int Int)) (|.x.69| Int) (|.x.67| (Array Int Int)) (|.x.63| Int) (|.x.65| (Array Int Int)) (|.loc.5| Bool) (|.loc.6| Bool) (|.x.76| Int) (|.x.75| Int) (|.x.78| Int) (|.x.80| Int) (|.x.66| (Array Int Int)) (|.x.64| (Array Int Int)) (|.x.70| (Array Int Int)) (|.x.68| Int) (|.x.72| Int) (|S_3| Bool) (|.x.74| Int) (|.x.77| Int) (|.x.79| Int) (|.xtv.1| (Array Int Int)) (|.xtv.2| Int)) (=> (and (state |A| |T| |C| |D| |E| |U| |G| |H| |I| |V| |K| |L| |M| |N| |O| |P| |Q| |R| |S| |.loc.3| |.loc.4| |T_0| |T_1|) (let ((.def_34 (not .loc.3))) (let ((.def_71 (= T_1 2))) (let ((.def_79 (store D .x.76 (store (select D .x.76) .x.75 1)))) (let ((.def_115 (and (= (store .def_79 .x.78 (store (select .def_79 .x.78) .x.80 2)) .x.66) (and (= (store T_0 .x.76 1) .x.64) (and (= (store H .x.76 4) .x.70) (and (= (select T_0 .x.76) 0) (and (= .x.75 0) (and (not (= .x.76 0)) (and (= T_1 (select (select .x.66 .x.76) .x.75)) (and (= .x.75 .x.80) (and (= .x.76 .x.78) (not (<= .x.63 .x.76))))))))))))) (let ((.def_125 (or S (and (= T_0 (store T 0 0)) (and (= .x.68 0) (= .x.72 0)))))) (let ((.def_129 (= L .x.74))) (let ((.def_150 (= S S_3))) (let ((.def_169 (not .loc.6))) (and (and (not .loc.4) (and (= K .x.73) (and (= I .x.71) (and (= G .x.69) (and (= E .x.67) (and (= A .x.63) (= C .x.65))))))) (or (or (and (and (not .loc.5) .loc.6) (or (and .def_34 (and (or S (not .def_71)) (and (or S .def_115) (and (and .def_125 S_3) .def_129)))) (and (or S (= .x.64 (store T N 0))) (and (= D .x.66) (and (= U .x.68) (and (= H .x.70) (and (= V .x.72) (and (= O .x.77) (and (= P .x.78) (and (= Q .x.79) (and (= R .x.80) (and (and .loc.3 (or S_3 (= .x.74 .x.77))) .def_150)))))))))))) (and (or .def_115 S_3) (and (or .def_71 S_3) (and (and .def_150 (and .loc.5 (and .def_34 (and .def_125 .def_129)))) .def_169)))) (and .def_169 (and .loc.5 (and .def_34 (and .def_129 (and .def_125 (and S S_3))))))))))))))))) (state |.x.63| |.x.64| |.x.65| |.x.66| |.x.67| |.x.68| |.x.69| |.x.70| |.x.71| |.x.72| |.x.73| |.x.74| |.x.75| |.x.76| |.x.77| |.x.78| |.x.79| |.x.80| |S_3| |.loc.5| |.loc.6| |.xtv.1| |.xtv.2|))))
(assert (forall ((|A| Int) (|T| (Array Int Int)) (|C| (Array Int Int)) (|D| (Array Int Int)) (|E| (Array Int Int)) (|U| Int) (|G| Int) (|H| (Array Int Int)) (|I| (Array Int Int)) (|V| Int) (|K| Int) (|L| Int) (|M| Int) (|N| Int) (|O| Int) (|P| Int) (|Q| Int) (|R| Int) (|S| Bool) (|.loc.3| Bool) (|.loc.4| Bool) (|T_0| (Array Int Int)) (|T_1| Int) (|.x.73| Int) (|.x.71| (Array Int Int)) (|.x.69| Int) (|.x.67| (Array Int Int)) (|.x.63| Int) (|.x.65| (Array Int Int)) (|.loc.5| Bool) (|.loc.6| Bool) (|.x.76| Int) (|.x.75| Int) (|.x.78| Int) (|.x.80| Int) (|.x.66| (Array Int Int)) (|.x.64| (Array Int Int)) (|.x.70| (Array Int Int)) (|.x.68| Int) (|.x.72| Int) (|S_3| Bool) (|.x.74| Int) (|.x.77| Int) (|.x.79| Int) (|.xtv.1| (Array Int Int)) (|.xtv.2| Int)) (=> (state |A| |T| |C| |D| |E| |U| |G| |H| |I| |V| |K| |L| |M| |N| |O| |P| |Q| |R| |S| |.loc.3| |.loc.4| |T_0| |T_1|) (not (and S (and .loc.4 (not .loc.3)))))))
(check-sat)
